DATASET = "thpack2";
INSTANCE = "036";

WIDTH = 233;
HEIGHT = 220;
LENGTH = 587;

NO_OF_SHAPES = 5;
size = [|
  41,39,26 |
  110,40,34 |
  94,77,52 |
  119,96,71 |
  67,63,47 |
|];

verticality = [|
  1,1,1 |
  0,1,1 |
  1,1,1 |
  1,1,1 |
  1,1,1 |
|];

box_count = [
  24,
  13,
  33,
  13,
  21,
];
